Li5 Mn2 Fe3 P6 O24
1.0
   8.5483379999999993    0.0000000000000000    0.0000000000000000
   4.0524000000000004    7.6130139999999997    0.0000000000000000
   4.0460949999999993    2.4798179999999999    7.2115030000000013
Li Mn Fe P O
5 2 3 6 24
direct
   0.7538769999999990    0.1427100000000000    0.3556570000000000 Li+
   0.1978629999999990    0.8512440000000000    0.6622150000000000 Li+
   0.6619929999999981    0.1959090000000000    0.8521940000000000 Li+
   0.8515089999999991    0.6613580000000000    0.1967710000000000 Li+
   0.8451579999999991    0.8398510000000000    0.8450110000000000 Li+
   0.0076049999999990    0.9970390000000000    0.9918830000000000 Mn2+
   0.4884239999999990    0.5066120000000000    0.5004230000000000 Mn2+
   0.1488720000000000    0.1467419999999990    0.1413370000000000 Fe3+
   0.3518209999999991    0.3569020000000001    0.3532810000000000 Fe3+
   0.6503829999999990    0.6513019999999990    0.6566080000000000 Fe3+
   0.0541069999999990    0.7515550000000000    0.4526779999999990 P5+
   0.4515320000000000    0.0528989999999990    0.7554730000000000 P5+
   0.7532369999999990    0.4520269999999990    0.0544710000000000 P5+
   0.2555560000000000    0.5415300000000001    0.9567129999999990 P5+
   0.5479160000000000    0.9591520000000000    0.2569740000000000 P5+
   0.9497599999999990    0.2537320000000000    0.5392060000000000 P5+
   0.1123720000000000    0.3214519999999980    0.4781860000000000 O2-
   0.3338689999999990    0.4911709999999990    0.1065919999999990 O2-
   0.0498490000000000    0.9164779999999991    0.2637760000000000 O2-
   0.5216580000000000    0.1072149999999980    0.3253939999999990 O2-
   0.0337089999999980    0.8097310000000000    0.6030470000000000 O2-
   0.2455870000000000    0.5937690000000000    0.4216120000000000 O2-
   0.2550200000000000    0.0690920000000000    0.9088120000000000 O2-
   0.4397280000000000    0.2391309999999980    0.5868630000000000 O2-
   0.1886719999999990    0.3860449999999990    0.9955170000000000 O2-
   0.5979120000000000    0.4197880000000000    0.2504710000000000 O2-
   0.0988979999999990    0.7332759999999990    0.9459019999999990 O2-
   0.3800669999999990    0.0091580000000000    0.1999739999999990 O2-
   0.6035889999999980    0.0264319999999990    0.8177740000000000 O2-
   0.9034610000000000    0.2517089999999990    0.0743910000000000 O2-
   0.4072889999999990    0.5668460000000000    0.7582150000000000 O2-
   0.8147119999999991    0.6017420000000000    0.0305229999999990 O2-
   0.5647210000000000    0.7614440000000000    0.4104600000000000 O2-
   0.7373949999999990    0.9415880000000000    0.0970569999999990 O2-
   0.7538539999999980    0.4090249999999990    0.5703830000000000 O2-
   0.9677119999999991    0.1933139999999990    0.3877779999999990 O2-
   0.4921930000000000    0.8890420000000000    0.6970670000000000 O2-
   0.9465759999999991    0.0968959999999990    0.7304569999999990 O2-
   0.6923839999999990    0.4929929999999990    0.8926440000000000 O2-
   0.8891570000000000    0.6891020000000000    0.4992089999999990 O2-
